p cnf 425
-7 -133
-8 -136
-9 -139
-10 -142
-11 -145
-12 -148
-13 149
-14 150
-15 151
-16 152
-17 -8
-17 -9
8 9 17
-18 -10
-18 -11
10 11 18
-19 -12
-19 -13
12 13 19
-20 -14
-20 -15
14 15 20
-21 17
-21 18
-17 -18 21
-22 19
-22 20
-19 -20 22
-23 21
-23 22
-21 -22 23
-24 -16
-24 23
16 -23 24
-25 -7
-25 8
7 -8 25
-26 7
-26 -8
-7 8 26
-27 -25
-27 -26
25 26 27
-28 7
-28 8
-7 -8 28
-29 -7
-29 -27
7 27 29
-30 7
-30 27
-7 -27 30
-31 -29
-31 -30
29 30 31
-32 7
-32 -27
-7 27 32
-33 -28
-33 -32
28 32 33
-34 -8
-34 9
8 -9 34
-35 8
-35 -9
-8 9 35
-36 -34
-36 -35
34 35 36
-37 8
-37 9
-8 -9 37
-38 33
-38 -36
-33 36 38
-39 -33
-39 36
33 -36 39
-40 -38
-40 -39
38 39 40
-41 -33
-41 -36
33 36 41
-42 -37
-42 -41
37 41 42
-43 -9
-43 10
9 -10 43
-44 9
-44 -10
-9 10 44
-45 -43
-45 -44
43 44 45
-46 9
-46 10
-9 -10 46
-47 42
-47 -45
-42 45 47
-48 -42
-48 45
42 -45 48
-49 -47
-49 -48
47 48 49
-50 -42
-50 -45
42 45 50
-51 -46
-51 -50
46 50 51
-52 -10
-52 11
10 -11 52
-53 10
-53 -11
-10 11 53
-54 -52
-54 -53
52 53 54
-55 10
-55 11
-10 -11 55
-56 51
-56 -54
-51 54 56
-57 -51
-57 54
51 -54 57
-58 -56
-58 -57
56 57 58
-59 -51
-59 -54
51 54 59
-60 -55
-60 -59
55 59 60
-61 -11
-61 12
11 -12 61
-62 11
-62 -12
-11 12 62
-63 -61
-63 -62
61 62 63
-64 11
-64 12
-11 -12 64
-65 60
-65 -63
-60 63 65
-66 -60
-66 63
60 -63 66
-67 -65
-67 -66
65 66 67
-68 -60
-68 -63
60 63 68
-69 -64
-69 -68
64 68 69
-70 -12
-70 13
12 -13 70
-71 12
-71 -13
-12 13 71
-72 -70
-72 -71
70 71 72
-73 12
-73 13
-12 -13 73
-74 69
-74 -72
-69 72 74
-75 -69
-75 72
69 -72 75
-76 -74
-76 -75
74 75 76
-77 -69
-77 -72
69 72 77
-78 -73
-78 -77
73 77 78
-79 -13
-79 14
13 -14 79
-80 13
-80 -14
-13 14 80
-81 -79
-81 -80
79 80 81
-82 13
-82 14
-13 -14 82
-83 78
-83 -81
-78 81 83
-84 -78
-84 81
78 -81 84
-85 -83
-85 -84
83 84 85
-86 -78
-86 -81
78 81 86
-87 -82
-87 -86
82 86 87
-88 -14
-88 15
14 -15 88
-89 14
-89 -15
-14 15 89
-90 -88
-90 -89
88 89 90
-91 14
-91 15
-14 -15 91
-92 87
-92 -90
-87 90 92
-93 -87
-93 90
87 -90 93
-94 -92
-94 -93
92 93 94
-95 -87
-95 -90
87 90 95
-96 -91
-96 -95
91 95 96
-97 -15
-97 16
15 -16 97
-98 15
-98 -16
-15 16 98
-99 -97
-99 -98
97 98 99
-100 15
-100 16
-15 -16 100
-101 96
-101 -99
-96 99 101
-102 -96
-102 99
96 -99 102
-103 -101
-103 -102
101 102 103
-104 -96
-104 -99
96 99 104
-105 -100
-105 -104
100 104 105
-106 7
-106 -31
-7 31 106
-107 -7
-107 9
7 -9 107
-108 -106
-108 -107
106 107 108
-109 7
-109 -40
-7 40 109
-110 -7
-110 10
7 -10 110
-111 -109
-111 -110
109 110 111
-112 7
-112 -49
-7 49 112
-113 -7
-113 11
7 -11 113
-114 -112
-114 -113
112 113 114
-115 7
-115 -58
-7 58 115
-116 -7
-116 12
7 -12 116
-117 -115
-117 -116
115 116 117
-118 7
-118 -67
-7 67 118
-119 -7
-119 13
7 -13 119
-120 -118
-120 -119
118 119 120
-121 7
-121 -76
-7 76 121
-122 -7
-122 14
7 -14 122
-123 -121
-123 -122
121 122 123
-124 7
-124 -85
-7 85 124
-125 -7
-125 15
7 -15 125
-126 -124
-126 -125
124 125 126
-127 7
-127 -94
-7 94 127
-128 -7
-128 16
7 -16 128
-129 -127
-129 -128
127 128 129
-130 7
-130 -103
-7 103 130
-131 1
-131 24
-1 -24 131
-132 -24
-132 25
24 -25 132
-133 -131
-133 -132
131 132 133
-134 2
-134 24
-2 -24 134
-135 -24
-135 -108
24 108 135
-136 -134
-136 -135
134 135 136
-137 3
-137 24
-3 -24 137
-138 -24
-138 -111
24 111 138
-139 -137
-139 -138
137 138 139
-140 4
-140 24
-4 -24 140
-141 -24
-141 -114
24 114 141
-142 -140
-142 -141
140 141 142
-143 5
-143 24
-5 -24 143
-144 -24
-144 -117
24 117 144
-145 -143
-145 -144
143 144 145
-146 6
-146 24
-6 -24 146
-147 -24
-147 -120
24 120 147
-148 -146
-148 -147
146 147 148
-149 -24
-149 -123
24 123 149
-150 -24
-150 -126
24 126 150
-151 -24
-151 -129
24 129 151
-152 -24
-152 130
24 -130 152
-153 -16
-153 105
16 -105 153
-154 7
-154 -153
-7 153 154
154
